c 68_4_checker_5cl.cnf
c
c field = 68
c formula set type = 4_checker_5cl
c
p cnf 5 6
14 
44 
74 
104 
-164 
15 
45 
75 
105 
-165 
6 
38 
70 
102 
-166 
7 
39 
71 
103 
-167 
22 
50 
78 
106 
-162 
23 
51 
79 
107 
-163 
